
  32    1
  10

   0   0   8 2 3 4 5 7 9 11 13 
   5   2   3 10 8 6 
   7   8   3 18 10 8 
   6   7   3 17 14 8 
   7   5   6 24 22 18 17 16 14 
   7   3   4 23 18 14 12 
   6   4   4 23 22 14 10 
   2   5   4 31 24 16 15 
   6   5   5 31 23 22 20 14 
   3   4   5 30 21 20 19 17 
   7   7   4 31 23 19 16 
   4  10   4 30 22 21 17 
   7   4   4 30 22 20 17 
   7   6   6 30 29 28 26 21 19 
   5   8   6 29 28 23 22 21 20 
   3   8   6 30 29 28 27 25 20 
   1   8   6 31 29 28 27 26 25 
  10   6   4 31 30 21 20 
   8   5   2 27 25 
   4   5   1 26 
   2   4   1 25 
   2   2   1 26 
   8  10   1 25 
   9   7   1 27 
   3   4   1 32
   2  10   1 32
   3   5   1 32
   4   6   1 32
   6   7   1 32
   7  10   1 32
   3   5   1 32
   0   0   0 
